SDVRP instances/custom_instances/p04_24_split0.vrp
NAME: p04_24_split
BEST_KNOWN: 0
COMMENT: 0
DIMENSION: 695
CAPACITY: 200
EDGE_WEIGHT_FORMAT: FUNCTION
EDGE_WEIGHT_TYPE: EXACT_2D
NODE_COORD_SECTION
1 0.00000 0.00000
2 -49 -18
3 -49 -18
4 -49 -18
5 -49 -18
6 -49 -18
7 -49 -18
8 -49 -18
9 -49 -18
10 -25 -37
11 -25 -37
12 -25 -37
13 -25 -37
14 -25 -37
15 -25 -37
16 -43 3
17 -43 3
18 -43 3
19 -43 3
20 -43 3
21 6 32
22 6 32
23 6 32
24 6 32
25 -21 -1
26 -21 -1
27 -21 -1
28 -21 -1
29 -21 -1
30 27 20
31 27 20
32 -7 45
33 -7 45
34 -7 45
35 -7 45
36 -7 45
37 -7 45
38 -7 45
39 17 -21
40 17 -21
41 17 -21
42 17 -21
43 17 -21
44 17 -21
45 39 -5
46 39 -5
47 39 -5
48 39 -5
49 39 -5
50 -17 -19
51 -17 -19
52 -17 -19
53 -17 -19
54 -17 -19
55 -21 -6
56 -21 -6
57 -21 -6
58 -21 -6
59 -21 -6
60 -21 -6
61 16 36
62 16 36
63 16 36
64 16 36
65 8 8
66 8 8
67 8 8
68 8 8
69 8 8
70 8 8
71 8 8
72 25 9
73 25 9
74 -7 37
75 -7 37
76 -37 11
77 -37 11
78 -37 11
79 -37 11
80 -37 11
81 -37 11
82 37 -47
83 37 -47
84 37 -47
85 -45 -12
86 -45 -12
87 -45 -12
88 -45 -12
89 -45 -12
90 40 -2
91 40 -2
92 40 -2
93 41 -48
94 41 -48
95 41 -48
96 41 -48
97 -32 1
98 -32 1
99 5 50
100 5 50
101 42 -10
102 42 -10
103 42 -10
104 42 -10
105 42 -10
106 42 -10
107 46 -34
108 46 -34
109 46 -34
110 46 -34
111 46 -34
112 -4 -21
113 -4 -21
114 -4 -21
115 -4 -21
116 -4 -21
117 -8 14
118 -8 14
119 -8 14
120 -8 14
121 -8 14
122 49 -33
123 49 -33
124 49 -33
125 49 -33
126 -29 -50
127 -29 -50
128 -29 -50
129 -29 -50
130 -29 -50
131 -18 8
132 -18 8
133 -18 8
134 -18 8
135 16 -31
136 16 -31
137 16 -31
138 7 -22
139 7 -22
140 7 -22
141 7 -22
142 7 -22
143 26 8
144 26 8
145 26 8
146 26 8
147 26 8
148 26 8
149 -24 -13
150 -24 -13
151 -24 -13
152 -24 -13
153 -24 -13
154 -24 -13
155 -24 -13
156 7 2
157 7 2
158 7 2
159 7 2
160 7 2
161 -38 32
162 -38 32
163 -38 32
164 -38 32
165 -38 32
166 -38 32
167 -31 -30
168 -31 -30
169 -31 -30
170 -31 -30
171 -31 -30
172 -31 -30
173 -31 -30
174 11 -50
175 11 -50
176 11 -50
177 11 -50
178 23 40
179 23 40
180 23 40
181 29 3
182 29 3
183 29 3
184 29 3
185 29 3
186 29 3
187 29 3
188 37 -35
189 37 -35
190 -37 2
191 -37 2
192 -37 2
193 -37 2
194 -37 2
195 -37 2
196 -37 2
197 23 43
198 23 43
199 23 43
200 -19 -24
201 -19 -24
202 -19 -24
203 -19 -24
204 -19 -24
205 -19 -24
206 -14 -17
207 -14 -17
208 -14 -17
209 -14 -17
210 -14 -17
211 -14 -17
212 -14 -17
213 27 -19
214 27 -19
215 27 -19
216 27 -19
217 27 -19
218 27 -19
219 23 21
220 23 21
221 23 21
222 23 21
223 23 21
224 49 15
225 49 15
226 49 15
227 49 15
228 49 15
229 -37 35
230 -37 35
231 -37 35
232 -37 35
233 -13 -19
234 -13 -19
235 -4 21
236 -4 21
237 -4 21
238 -4 21
239 -4 21
240 -4 21
241 -4 21
242 -43 -20
243 -43 -20
244 -43 -20
245 -43 -20
246 -43 -20
247 -43 -20
248 47 3
249 47 3
250 47 3
251 47 3
252 -24 -23
253 -17 -27
254 -17 -27
255 -17 -27
256 -17 -27
257 -17 -27
258 -17 -27
259 6 33
260 6 33
261 6 33
262 6 33
263 6 33
264 6 33
265 -34 -40
266 -34 -40
267 -34 -40
268 -34 -40
269 -10 -4
270 -10 -4
271 -10 -4
272 -10 -4
273 -10 -4
274 40 24
275 40 24
276 40 24
277 40 24
278 40 24
279 40 24
280 26 22
281 26 22
282 26 22
283 26 22
284 26 22
285 -40 5
286 -40 5
287 -40 5
288 -40 5
289 3 50
290 3 50
291 3 50
292 -45 -34
293 -45 -34
294 -45 -34
295 -45 -34
296 -45 -34
297 -45 -34
298 27 7
299 27 7
300 27 7
301 27 7
302 27 7
303 -3 28
304 -3 28
305 -3 28
306 -3 28
307 -3 28
308 15 -50
309 15 -50
310 15 -50
311 15 -50
312 15 -50
313 15 -50
314 -28 20
315 -28 20
316 -28 20
317 47 22
318 47 22
319 47 22
320 47 22
321 47 22
322 47 22
323 47 22
324 10 42
325 10 42
326 24 -21
327 24 -21
328 24 -21
329 24 -21
330 24 -21
331 24 -21
332 24 -21
333 49 -41
334 49 -41
335 49 -41
336 49 -41
337 -49 35
338 -49 35
339 -49 35
340 -49 35
341 -49 35
342 -49 35
343 -41 39
344 -41 39
345 -41 39
346 -45 38
347 -45 38
348 -45 38
349 -45 38
350 -45 38
351 -45 38
352 23 23
353 23 23
354 23 23
355 23 23
356 23 23
357 24 8
358 24 8
359 24 8
360 14 47
361 14 47
362 14 47
363 14 47
364 -2 -47
365 -2 -47
366 -2 -47
367 -1 46
368 -1 46
369 -1 46
370 -1 46
371 -1 46
372 -1 46
373 -1 46
374 16 -19
375 16 -19
376 16 -19
377 16 -19
378 42 -46
379 42 -46
380 42 -46
381 42 -46
382 42 -46
383 19 -41
384 19 -41
385 30 -22
386 30 -22
387 30 -22
388 30 -22
389 30 -22
390 30 -22
391 -34 -33
392 -34 -33
393 -34 -33
394 -24 -44
395 -24 -44
396 -24 -44
397 11 -18
398 11 -18
399 11 -18
400 11 -18
401 11 -18
402 11 -18
403 -31 -30
404 -31 -30
405 -31 -30
406 -31 -30
407 46 49
408 46 49
409 46 49
410 46 49
411 14 -33
412 14 -33
413 14 -33
414 14 -33
415 14 -33
416 14 -33
417 -9 -30
418 -9 -30
419 -9 -30
420 -9 -30
421 -9 -30
422 -9 -30
423 19 -23
424 19 -23
425 19 -23
426 19 -23
427 19 -23
428 15 -44
429 15 -44
430 15 -44
431 15 -44
432 15 -44
433 39 44
434 39 44
435 39 44
436 39 44
437 29 -23
438 29 -23
439 29 -23
440 -23 -44
441 -23 -44
442 -23 -44
443 -23 -44
444 -23 -44
445 -16 -22
446 -16 -22
447 -16 -22
448 -16 -22
449 -16 -22
450 -16 -22
451 -21 -18
452 -21 -18
453 -21 -18
454 31 -20
455 31 -20
456 31 -20
457 -1 38
458 -1 38
459 -1 38
460 -1 38
461 -38 15
462 -38 15
463 -1 -19
464 -1 -19
465 -1 -19
466 -1 -19
467 -47 -22
468 -47 -22
469 -47 -22
470 -47 -22
471 10 -48
472 10 -48
473 10 -48
474 5 -10
475 5 -10
476 5 -10
477 5 -10
478 5 -10
479 21 -4
480 21 -4
481 21 -4
482 18 18
483 18 18
484 18 18
485 18 18
486 18 18
487 18 18
488 -4 -46
489 -4 -46
490 -4 -46
491 -4 -46
492 -4 -46
493 -20 -22
494 -20 -22
495 -20 -22
496 37 43
497 37 43
498 37 43
499 37 43
500 -4 -17
501 -4 -17
502 -4 -17
503 -4 -17
504 33 -46
505 33 -46
506 -17 12
507 -17 12
508 -17 12
509 -17 12
510 -17 12
511 -17 12
512 -17 12
513 37 4
514 37 4
515 37 4
516 37 4
517 37 4
518 -30 -33
519 -30 -33
520 -30 -33
521 -30 -33
522 -30 -33
523 -7 -17
524 -7 -17
525 -7 -17
526 -7 -17
527 29 -27
528 29 -27
529 29 -27
530 29 -27
531 29 -27
532 29 -27
533 -16 12
534 -16 12
535 -16 12
536 -16 12
537 -16 12
538 -16 12
539 -17 40
540 -17 40
541 -39 -42
542 -39 -42
543 -39 -42
544 -26 -23
545 -26 -23
546 -26 -23
547 -26 -23
548 2 -6
549 2 -6
550 2 -6
551 2 -6
552 5 48
553 5 48
554 5 48
555 5 48
556 5 48
557 -5 -36
558 -5 -36
559 -5 -36
560 -5 -36
561 -5 -36
562 -5 -36
563 34 17
564 34 17
565 34 17
566 32 35
567 32 35
568 32 35
569 32 35
570 32 35
571 46 30
572 46 30
573 46 30
574 46 30
575 46 30
576 46 30
577 46 30
578 -29 25
579 -29 25
580 -29 25
581 -29 25
582 31 16
583 31 16
584 31 16
585 31 16
586 -19 20
587 -19 20
588 -13 -34
589 -13 -34
590 -13 -34
591 -13 -34
592 28 -16
593 28 -16
594 28 -16
595 28 -16
596 28 -16
597 31 -45
598 31 -45
599 31 -45
600 31 -45
601 31 -45
602 34 -19
603 34 -19
604 34 -19
605 34 -19
606 34 -19
607 34 -19
608 34 -19
609 34 -19
610 0 24
611 0 24
612 0 24
613 27 37
614 27 37
615 27 37
616 27 37
617 -18 -16
618 -18 -16
619 -18 -16
620 -18 -16
621 -18 -16
622 -18 -16
623 -18 -16
624 -34 28
625 -34 28
626 25 -45
627 25 -45
628 25 -45
629 25 -45
630 27 43
631 27 43
632 27 43
633 27 43
634 27 43
635 37 -45
636 37 -45
637 37 -45
638 37 -45
639 37 -45
640 46 -11
641 46 -11
642 46 -11
643 46 -11
644 46 -11
645 46 -11
646 46 -11
647 46 -11
648 12 -24
649 12 -24
650 12 -24
651 12 -24
652 12 -24
653 12 -24
654 8 -31
655 8 -31
656 8 -31
657 8 -31
658 -21 -18
659 -21 -18
660 -21 -18
661 -21 -18
662 -21 -18
663 -21 -18
664 -21 -18
665 8 32
666 8 32
667 8 32
668 8 32
669 -10 11
670 -10 11
671 -10 11
672 -10 11
673 4 47
674 4 47
675 4 47
676 4 47
677 4 47
678 4 43
679 4 43
680 4 43
681 4 43
682 22 -3
683 22 -3
684 22 -3
685 22 -3
686 22 -3
687 22 -3
688 22 -3
689 -42 -42
690 -41 33
691 -41 33
692 -41 33
693 -41 33
694 -41 33
695 -41 33
DEMAND_SECTION
1 0
2 40
3 20
4 10
5 2
6 2
7 2
8 2
9 1
10 40
11 40
12 2
13 2
14 2
15 1
16 40
17 40
18 10
19 2
20 1
21 40
22 10
23 2
24 1
25 20
26 10
27 2
28 2
29 2
30 40
31 10
32 40
33 20
34 2
35 2
36 2
37 2
38 1
39 40
40 40
41 2
42 2
43 2
44 1
45 40
46 40
47 10
48 2
49 1
50 40
51 10
52 2
53 2
54 2
55 40
56 20
57 10
58 2
59 2
60 1
61 40
62 40
63 10
64 2
65 40
66 20
67 10
68 2
69 2
70 2
71 1
72 40
73 40
74 40
75 20
76 40
77 10
78 2
79 2
80 2
81 1
82 40
83 20
84 10
85 40
86 10
87 2
88 2
89 1
90 40
91 40
92 2
93 20
94 10
95 2
96 2
97 20
98 10
99 40
100 1
101 40
102 40
103 2
104 2
105 2
106 2
107 20
108 10
109 2
110 2
111 2
112 40
113 20
114 10
115 2
116 1
117 20
118 10
119 2
120 2
121 1
122 40
123 40
124 10
125 1
126 20
127 2
128 2
129 2
130 2
131 40
132 2
133 2
134 2
135 20
136 10
137 2
138 20
139 10
140 2
141 2
142 1
143 40
144 10
145 2
146 2
147 2
148 2
149 40
150 10
151 2
152 2
153 2
154 2
155 1
156 40
157 2
158 2
159 2
160 2
161 20
162 10
163 2
164 2
165 2
166 1
167 40
168 20
169 2
170 2
171 2
172 2
173 1
174 20
175 2
176 2
177 2
178 40
179 40
180 2
181 40
182 40
183 10
184 2
185 2
186 2
187 2
188 40
189 2
190 40
191 20
192 2
193 2
194 2
195 2
196 1
197 40
198 2
199 1
200 20
201 10
202 2
203 2
204 2
205 1
206 20
207 10
208 2
209 2
210 2
211 2
212 1
213 40
214 2
215 2
216 2
217 2
218 1
219 40
220 20
221 10
222 2
223 1
224 40
225 40
226 2
227 2
228 2
229 20
230 2
231 2
232 1
233 40
234 40
235 20
236 10
237 2
238 2
239 2
240 2
241 1
242 20
243 10
244 2
245 2
246 2
247 2
248 40
249 2
250 2
251 2
252 40
253 40
254 40
255 10
256 2
257 2
258 2
259 40
260 20
261 10
262 2
263 2
264 2
265 20
266 10
267 2
268 1
269 40
270 40
271 2
272 2
273 2
274 20
275 2
276 2
277 2
278 2
279 1
280 40
281 40
282 2
283 2
284 2
285 40
286 10
287 2
288 1
289 20
290 10
291 1
292 40
293 40
294 2
295 2
296 2
297 2
298 20
299 10
300 2
301 2
302 2
303 40
304 40
305 10
306 2
307 2
308 40
309 20
310 10
311 2
312 2
313 1
314 40
315 10
316 2
317 40
318 20
319 2
320 2
321 2
322 2
323 1
324 40
325 20
326 40
327 40
328 2
329 2
330 2
331 2
332 1
333 40
334 40
335 10
336 2
337 40
338 10
339 2
340 2
341 2
342 1
343 40
344 2
345 1
346 40
347 40
348 10
349 2
350 2
351 2
352 40
353 40
354 2
355 2
356 2
357 40
358 40
359 10
360 40
361 10
362 2
363 1
364 40
365 40
366 1
367 40
368 20
369 10
370 2
371 2
372 2
373 1
374 20
375 2
376 2
377 2
378 40
379 2
380 2
381 2
382 1
383 40
384 2
385 40
386 40
387 2
388 2
389 2
390 1
391 40
392 10
393 1
394 40
395 40
396 1
397 40
398 20
399 10
400 2
401 2
402 2
403 40
404 2
405 2
406 1
407 40
408 10
409 2
410 2
411 40
412 10
413 2
414 2
415 2
416 1
417 40
418 10
419 2
420 2
421 2
422 2
423 40
424 40
425 2
426 2
427 1
428 40
429 40
430 10
431 2
432 2
433 40
434 10
435 2
436 1
437 40
438 20
439 1
440 40
441 20
442 2
443 2
444 2
445 40
446 10
447 2
448 2
449 2
450 2
451 40
452 20
453 2
454 40
455 2
456 2
457 40
458 40
459 2
460 1
461 40
462 1
463 40
464 20
465 10
466 2
467 40
468 2
469 2
470 1
471 40
472 20
473 10
474 40
475 40
476 2
477 2
478 1
479 40
480 20
481 2
482 40
483 20
484 2
485 2
486 2
487 1
488 40
489 10
490 2
491 2
492 2
493 40
494 10
495 2
496 20
497 10
498 2
499 1
500 40
501 10
502 2
503 2
504 20
505 10
506 40
507 20
508 2
509 2
510 2
511 2
512 1
513 40
514 20
515 10
516 2
517 2
518 40
519 10
520 2
521 2
522 1
523 40
524 20
525 2
526 2
527 40
528 40
529 10
530 2
531 2
532 2
533 40
534 20
535 10
536 2
537 2
538 2
539 40
540 1
541 20
542 10
543 1
544 40
545 10
546 2
547 2
548 40
549 20
550 10
551 1
552 40
553 40
554 10
555 2
556 1
557 40
558 20
559 10
560 2
561 2
562 1
563 40
564 40
565 10
566 20
567 2
568 2
569 2
570 1
571 40
572 40
573 10
574 2
575 2
576 2
577 1
578 40
579 20
580 2
581 2
582 40
583 20
584 2
585 2
586 40
587 1
588 40
589 20
590 10
591 2
592 40
593 40
594 10
595 2
596 1
597 20
598 10
599 2
600 2
601 2
602 40
603 20
604 10
605 2
606 2
607 2
608 2
609 1
610 40
611 2
612 1
613 40
614 20
615 10
616 2
617 40
618 20
619 10
620 2
621 2
622 2
623 2
624 40
625 10
626 40
627 20
628 10
629 1
630 40
631 40
632 10
633 2
634 1
635 40
636 2
637 2
638 2
639 2
640 40
641 20
642 10
643 2
644 2
645 2
646 2
647 1
648 40
649 10
650 2
651 2
652 2
653 2
654 40
655 20
656 10
657 1
658 40
659 40
660 10
661 2
662 2
663 2
664 2
665 40
666 40
667 10
668 1
669 40
670 10
671 2
672 2
673 20
674 10
675 2
676 2
677 1
678 40
679 20
680 2
681 2
682 40
683 10
684 2
685 2
686 2
687 2
688 1
689 40
690 40
691 20
692 2
693 2
694 2
695 2
DEPOT_SECTION
1
-1
EOF