SDVRP instances/custom_instances/p04_24_split0.sol
694 -4 8 3 2 5 7 1 6 466 468 469 467 392 390 391 404 171 168 170 403 546 545 544 -9 14 12 10 13 11 589 590 587 588 556 -22 20 23 21 260 261 263 262 258 664 667 666 665 -26 28 25 27 24 55 54 58 57 56 59 269 271 272 268 270 -30 29 564 563 562 581 582 -48 47 44 46 45 91 89 90 514 300 301 -61 60 360 362 359 361 324 323 -63 62 196 197 198 632 633 629 630 631 177 179 -67 485 481 486 351 352 354 222 219 221 218 220 -69 483 482 484 353 355 569 567 565 568 566 409 407 406 408 433 432 434 435 497 498 495 496 -71 72 356 358 357 -74 73 302 304 303 305 306 611 609 610 -75 80 79 77 78 76 287 286 285 284 193 192 195 191 194 190 189 96 -97 17 18 16 15 19 87 86 88 84 85 244 245 241 243 246 242 -105 101 104 100 102 103 640 644 643 646 639 645 641 642 682 685 684 -114 112 113 115 111 465 462 463 464 549 550 547 -130 131 133 132 507 505 506 532 536 534 533 537 535 -135 134 136 628 625 627 626 427 429 430 428 431 -138 655 656 470 472 471 175 174 176 173 310 307 311 312 308 309 414 413 415 -141 140 137 139 654 653 412 410 411 647 648 649 650 652 651 477 475 476 -150 149 148 151 154 152 153 543 251 493 494 492 -155 64 65 70 66 68 120 116 117 118 119 669 670 668 -158 156 159 157 146 147 144 143 145 142 297 299 298 182 186 181 183 180 184 185 -178 612 613 614 615 283 282 280 279 281 -187 188 109 106 110 108 107 121 123 122 124 605 604 608 602 -204 203 201 202 200 199 519 517 521 520 518 166 167 172 169 405 402 -210 205 207 208 52 50 660 662 659 661 657 451 658 663 452 450 620 -211 206 209 444 448 254 255 256 252 253 257 421 416 419 -215 216 212 213 214 217 454 453 455 607 606 603 601 388 384 387 386 330 331 -223 225 226 227 224 247 250 249 248 515 512 516 513 -229 231 230 228 693 692 694 691 690 689 161 160 165 164 163 162 623 624 509 511 510 508 -232 233 49 51 53 617 622 621 619 618 616 -240 236 238 237 235 234 239 370 369 367 366 368 372 371 678 679 677 680 259 -265 267 264 266 540 541 542 688 292 293 296 291 295 294 -278 276 274 273 277 275 572 570 571 576 574 575 573 322 319 318 320 321 317 316 583 584 -329 325 328 327 326 422 423 425 426 424 42 43 548 -335 332 334 333 378 381 379 380 377 92 94 93 95 637 635 596 598 -336 337 341 339 340 338 348 350 347 346 349 345 344 342 343 -363 364 365 490 487 488 489 491 559 558 557 560 561 420 418 417 501 500 502 -376 373 375 374 40 38 39 41 401 397 398 399 396 400 -382 383 597 599 600 504 503 81 83 82 636 638 634 -389 385 436 438 437 530 531 526 528 529 527 -443 439 442 440 441 393 394 395 126 127 128 129 125 445 449 447 446 -457 458 456 459 32 37 31 35 34 33 36 539 538 -461 460 313 315 314 580 577 579 578 585 586 671 -473 474 499 525 522 524 523 -478 479 480 686 683 681 687 591 592 593 594 595 -553 555 552 554 551 99 98 290 288 289 676 674 672 675 673 0 





OBJ=
4262.944
BEST_KNOWN=
0.000